NAME : rejilla_16
TYPE : TSP
DIMENSION : 16
EDGE_WEIGHT_TYPE : EUC_2D
NODE_COORD_SECTION
1 0 0
2 5 0
3 10 0
4 15 0
5 0 5
6 5 5
7 10 5
8 15 5
9 0 10
10 5 10
11 10 10
12 15 10
13 0 15
14 5 15
15 10 15
16 15 15
EOF